NAME JobShopModel
ROWS
 N  OBJ
 G  c0      
 L  c1      
 G  c2      
 L  c3      
 G  c4      
 L  c5      
 G  c6      
 L  c7      
 G  c8      
 L  c9      
 G  c10     
 L  c11     
 G  c12     
 L  c13     
 G  c14     
 G  c15     
 G  c16     
 G  c17     
 G  c18     
 G  c19     
 G  c20     
 E  c21     
 E  c22     
 E  c23     
 E  c24     
 E  c25     
 E  c26     
 E  c27     
 E  c28     
 E  c29     
 E  c30     
 E  c31     
 E  c32     
 L  c33     
 L  c34     
 L  c35     
 L  c36     
 L  c37     
 L  c38     
 L  c39     
 L  c40     
 L  c41     
 L  c42     
 L  c43     
 L  c44     
 L  c45     
 L  c46     
 L  c47     
 L  c48     
 L  c49     
 L  c50     
 L  c51     
 L  c52     
 G  c53     
 G  c54     
 G  c55     
 G  c56     
 G  c57     
 G  c58     
 G  c59     
 G  c60     
 G  c61     
 G  c62     
 G  c63     
 G  c64     
 G  c65     
 G  c66     
 G  c67     
 G  c68     
 G  c69     
 G  c70     
 G  c71     
 G  c72     
 G  c73     
 G  c74     
 G  c75     
 G  c76     
 G  c77     
 G  c78     
 G  c79     
 G  c80     
 G  c81     
 G  c82     
 G  c83     
 G  c84     
 G  c85     
 G  c86     
 G  c87     
 G  c88     
 G  c89     
 G  c90     
 G  c91     
 G  c92     
 G  c93     
 G  c94     
 G  c95     
 G  c96     
 G  c97     
 G  c98     
 G  c99     
 G  c100    
 G  c101    
 G  c102    
 G  c103    
 G  c104    
 G  c105    
 G  c106    
 G  c107    
 G  c108    
 G  c109    
 G  c110    
 G  c111    
 G  c112    
 G  c113    
 G  c114    
 G  c115    
 G  c116    
 G  c117    
 G  c118    
 G  c119    
 G  c120    
 G  c121    
 G  c122    
 G  c123    
 G  c124    
 G  c125    
 G  c126    
 G  c127    
 G  c128    
 G  c129    
 G  c130    
 G  c131    
 G  c132    
 G  c133    
 G  c134    
 G  c135    
 G  c136    
 G  c137    
 G  c138    
 G  c139    
 G  c140    
 G  c141    
 G  c142    
 G  c143    
 G  c144    
 G  c145    
 G  c146    
 G  c147    
 G  c148    
 G  c149    
 G  c150    
 G  c151    
 G  OF_constraint
COLUMNS
    MARKER    'MARKER'                 'INTORG'
    y[0,0,3]  c0        150
    y[0,0,3]  c1        150
    y[0,0,3]  c21       1
    y[0,0,3]  c33       -10000000
    y[0,0,3]  c61       -10000000
    y[0,0,3]  c62       -10000000
    y[0,0,3]  c65       -10000000
    y[0,0,3]  c66       -10000000
    y[0,0,3]  c69       -10000000
    y[0,0,3]  c70       -10000000
    y[0,0,3]  c73       -10000000
    y[0,0,3]  c74       -10000000
    y[0,0,4]  c2        160
    y[0,0,4]  c3        160
    y[0,0,4]  c21       1
    y[0,0,4]  c34       -10000000
    y[0,0,4]  c63       -10000000
    y[0,0,4]  c64       -10000000
    y[0,0,4]  c67       -10000000
    y[0,0,4]  c68       -10000000
    y[0,0,4]  c71       -10000000
    y[0,0,4]  c72       -10000000
    y[0,1,1]  c22       1
    y[0,1,1]  c35       -10000000
    y[0,1,1]  c53       -130
    y[0,1,1]  c75       -10000000
    y[0,1,1]  c76       -10000000
    y[0,1,1]  c79       -10000000
    y[0,1,1]  c80       -10000000
    y[0,1,1]  c83       -10000000
    y[0,1,1]  c84       -10000000
    y[0,1,3]  c22       1
    y[0,1,3]  c36       -10000000
    y[0,1,3]  c53       -140
    y[0,1,3]  c61       -10000000
    y[0,1,3]  c62       -10000000
    y[0,1,3]  c73       -10000000
    y[0,1,3]  c74       -10000000
    y[0,1,3]  c77       -10000000
    y[0,1,3]  c78       -10000000
    y[0,1,3]  c81       -10000000
    y[0,1,3]  c82       -10000000
    y[0,2,0]  c23       1
    y[0,2,0]  c37       -10000000
    y[0,2,0]  c54       -147
    y[0,2,0]  c85       -10000000
    y[0,2,0]  c86       -10000000
    y[0,2,0]  c87       -10000000
    y[0,2,0]  c88       -10000000
    y[0,2,0]  c89       -10000000
    y[0,2,0]  c90       -10000000
    y[0,2,0]  c129      -480
    y[1,0,4]  c4        178
    y[1,0,4]  c5        178
    y[1,0,4]  c24       1
    y[1,0,4]  c38       -10000000
    y[1,0,4]  c63       -10000000
    y[1,0,4]  c64       -10000000
    y[1,0,4]  c91       -10000000
    y[1,0,4]  c92       -10000000
    y[1,0,4]  c93       -10000000
    y[1,0,4]  c94       -10000000
    y[1,1,1]  c25       1
    y[1,1,1]  c39       -10000000
    y[1,1,1]  c55       -66
    y[1,1,1]  c75       -10000000
    y[1,1,1]  c76       -10000000
    y[1,1,1]  c99       -10000000
    y[1,1,1]  c100      -10000000
    y[1,1,1]  c103      -10000000
    y[1,1,1]  c104      -10000000
    y[1,1,2]  c25       1
    y[1,1,2]  c40       -10000000
    y[1,1,2]  c55       -87
    y[1,1,2]  c95       -10000000
    y[1,1,2]  c96       -10000000
    y[1,1,2]  c97       -10000000
    y[1,1,2]  c98       -10000000
    y[1,1,2]  c101      -10000000
    y[1,1,2]  c102      -10000000
    y[1,1,2]  c105      -10000000
    y[1,1,2]  c106      -10000000
    y[1,2,0]  c26       1
    y[1,2,0]  c41       -10000000
    y[1,2,0]  c56       -214
    y[1,2,0]  c85       -10000000
    y[1,2,0]  c86       -10000000
    y[1,2,0]  c109      -10000000
    y[1,2,0]  c110      -10000000
    y[1,2,0]  c113      -10000000
    y[1,2,0]  c114      -10000000
    y[1,2,0]  c134      -480
    y[1,2,2]  c26       1
    y[1,2,2]  c42       -10000000
    y[1,2,2]  c56       -150
    y[1,2,2]  c95       -10000000
    y[1,2,2]  c96       -10000000
    y[1,2,2]  c105      -10000000
    y[1,2,2]  c106      -10000000
    y[1,2,2]  c107      -10000000
    y[1,2,2]  c108      -10000000
    y[1,2,2]  c111      -10000000
    y[1,2,2]  c112      -10000000
    y[1,2,2]  c136      -480
    y[2,0,3]  c6        190
    y[2,0,3]  c7        190
    y[2,0,3]  c27       1
    y[2,0,3]  c43       -10000000
    y[2,0,3]  c65       -10000000
    y[2,0,3]  c66       -10000000
    y[2,0,3]  c77       -10000000
    y[2,0,3]  c78       -10000000
    y[2,0,3]  c115      -10000000
    y[2,0,3]  c116      -10000000
    y[2,0,4]  c8        100
    y[2,0,4]  c9        100
    y[2,0,4]  c27       1
    y[2,0,4]  c44       -10000000
    y[2,0,4]  c67       -10000000
    y[2,0,4]  c68       -10000000
    y[2,0,4]  c91       -10000000
    y[2,0,4]  c92       -10000000
    y[2,0,4]  c117      -10000000
    y[2,0,4]  c118      -10000000
    y[2,1,2]  c28       1
    y[2,1,2]  c45       -10000000
    y[2,1,2]  c57       -180
    y[2,1,2]  c97       -10000000
    y[2,1,2]  c98       -10000000
    y[2,1,2]  c107      -10000000
    y[2,1,2]  c108      -10000000
    y[2,1,2]  c119      -10000000
    y[2,1,2]  c120      -10000000
    y[2,2,0]  c29       1
    y[2,2,0]  c46       -10000000
    y[2,2,0]  c58       -87
    y[2,2,0]  c87       -10000000
    y[2,2,0]  c88       -10000000
    y[2,2,0]  c109      -10000000
    y[2,2,0]  c110      -10000000
    y[2,2,0]  c121      -10000000
    y[2,2,0]  c122      -10000000
    y[2,2,0]  c141      -480
    y[2,2,1]  c29       1
    y[2,2,1]  c47       -10000000
    y[2,2,1]  c58       -62
    y[2,2,1]  c79       -10000000
    y[2,2,1]  c80       -10000000
    y[2,2,1]  c99       -10000000
    y[2,2,1]  c100      -10000000
    y[2,2,1]  c123      -10000000
    y[2,2,1]  c124      -10000000
    y[2,2,1]  c143      -480
    y[3,0,2]  c10       136
    y[3,0,2]  c11       136
    y[3,0,2]  c30       1
    y[3,0,2]  c48       -10000000
    y[3,0,2]  c101      -10000000
    y[3,0,2]  c102      -10000000
    y[3,0,2]  c111      -10000000
    y[3,0,2]  c112      -10000000
    y[3,0,2]  c119      -10000000
    y[3,0,2]  c120      -10000000
    y[3,0,3]  c12       145
    y[3,0,3]  c13       145
    y[3,0,3]  c30       1
    y[3,0,3]  c49       -10000000
    y[3,0,3]  c69       -10000000
    y[3,0,3]  c70       -10000000
    y[3,0,3]  c81       -10000000
    y[3,0,3]  c82       -10000000
    y[3,0,3]  c115      -10000000
    y[3,0,3]  c116      -10000000
    y[3,1,4]  c31       1
    y[3,1,4]  c50       -10000000
    y[3,1,4]  c59       -173
    y[3,1,4]  c71       -10000000
    y[3,1,4]  c72       -10000000
    y[3,1,4]  c93       -10000000
    y[3,1,4]  c94       -10000000
    y[3,1,4]  c117      -10000000
    y[3,1,4]  c118      -10000000
    y[3,2,0]  c32       1
    y[3,2,0]  c51       -10000000
    y[3,2,0]  c60       -87
    y[3,2,0]  c89       -10000000
    y[3,2,0]  c90       -10000000
    y[3,2,0]  c113      -10000000
    y[3,2,0]  c114      -10000000
    y[3,2,0]  c121      -10000000
    y[3,2,0]  c122      -10000000
    y[3,2,0]  c148      -480
    y[3,2,1]  c32       1
    y[3,2,1]  c52       -10000000
    y[3,2,1]  c60       -65
    y[3,2,1]  c83       -10000000
    y[3,2,1]  c84       -10000000
    y[3,2,1]  c103      -10000000
    y[3,2,1]  c104      -10000000
    y[3,2,1]  c123      -10000000
    y[3,2,1]  c124      -10000000
    y[3,2,1]  c150      -480
    x[0,0,0,0]  OBJ       0
    x[0,0,0,1]  c61       10000000
    x[0,0,0,1]  c62       -10000000
    x[0,0,0,2]  OBJ       0
    x[0,0,1,0]  c63       10000000
    x[0,0,1,0]  c64       -10000000
    x[0,0,1,1]  OBJ       0
    x[0,0,1,2]  OBJ       0
    x[0,0,2,0]  c65       10000000
    x[0,0,2,0]  c66       -10000000
    x[0,0,2,0]  c67       10000000
    x[0,0,2,0]  c68       -10000000
    x[0,0,2,1]  OBJ       0
    x[0,0,2,2]  OBJ       0
    x[0,0,3,0]  c69       10000000
    x[0,0,3,0]  c70       -10000000
    x[0,0,3,1]  c71       10000000
    x[0,0,3,1]  c72       -10000000
    x[0,0,3,2]  OBJ       0
    x[0,1,0,0]  c73       10000000
    x[0,1,0,0]  c74       -10000000
    x[0,1,0,1]  OBJ       0
    x[0,1,0,2]  OBJ       0
    x[0,1,1,0]  OBJ       0
    x[0,1,1,1]  c75       10000000
    x[0,1,1,1]  c76       -10000000
    x[0,1,1,2]  OBJ       0
    x[0,1,2,0]  c77       10000000
    x[0,1,2,0]  c78       -10000000
    x[0,1,2,1]  OBJ       0
    x[0,1,2,2]  c79       10000000
    x[0,1,2,2]  c80       -10000000
    x[0,1,3,0]  c81       10000000
    x[0,1,3,0]  c82       -10000000
    x[0,1,3,1]  OBJ       0
    x[0,1,3,2]  c83       10000000
    x[0,1,3,2]  c84       -10000000
    x[0,2,0,0]  OBJ       0
    x[0,2,0,1]  OBJ       0
    x[0,2,0,2]  OBJ       0
    x[0,2,1,0]  OBJ       0
    x[0,2,1,1]  OBJ       0
    x[0,2,1,2]  c85       10000000
    x[0,2,1,2]  c86       -10000000
    x[0,2,2,0]  OBJ       0
    x[0,2,2,1]  OBJ       0
    x[0,2,2,2]  c87       10000000
    x[0,2,2,2]  c88       -10000000
    x[0,2,3,0]  OBJ       0
    x[0,2,3,1]  OBJ       0
    x[0,2,3,2]  c89       10000000
    x[0,2,3,2]  c90       -10000000
    x[1,0,0,0]  OBJ       0
    x[1,0,0,1]  OBJ       0
    x[1,0,0,2]  OBJ       0
    x[1,0,1,0]  OBJ       0
    x[1,0,1,1]  OBJ       0
    x[1,0,1,2]  OBJ       0
    x[1,0,2,0]  c91       10000000
    x[1,0,2,0]  c92       -10000000
    x[1,0,2,1]  OBJ       0
    x[1,0,2,2]  OBJ       0
    x[1,0,3,0]  OBJ       0
    x[1,0,3,1]  c93       10000000
    x[1,0,3,1]  c94       -10000000
    x[1,0,3,2]  OBJ       0
    x[1,1,0,0]  OBJ       0
    x[1,1,0,1]  OBJ       0
    x[1,1,0,2]  OBJ       0
    x[1,1,1,0]  OBJ       0
    x[1,1,1,1]  OBJ       0
    x[1,1,1,2]  c95       10000000
    x[1,1,1,2]  c96       -10000000
    x[1,1,2,0]  OBJ       0
    x[1,1,2,1]  c97       10000000
    x[1,1,2,1]  c98       -10000000
    x[1,1,2,2]  c99       10000000
    x[1,1,2,2]  c100      -10000000
    x[1,1,3,0]  c101      10000000
    x[1,1,3,0]  c102      -10000000
    x[1,1,3,1]  OBJ       0
    x[1,1,3,2]  c103      10000000
    x[1,1,3,2]  c104      -10000000
    x[1,2,0,0]  OBJ       0
    x[1,2,0,1]  OBJ       0
    x[1,2,0,2]  OBJ       0
    x[1,2,1,0]  OBJ       0
    x[1,2,1,1]  c105      10000000
    x[1,2,1,1]  c106      -10000000
    x[1,2,1,2]  OBJ       0
    x[1,2,2,0]  OBJ       0
    x[1,2,2,1]  c107      10000000
    x[1,2,2,1]  c108      -10000000
    x[1,2,2,2]  c109      10000000
    x[1,2,2,2]  c110      -10000000
    x[1,2,3,0]  c111      10000000
    x[1,2,3,0]  c112      -10000000
    x[1,2,3,1]  OBJ       0
    x[1,2,3,2]  c113      10000000
    x[1,2,3,2]  c114      -10000000
    x[2,0,0,0]  OBJ       0
    x[2,0,0,1]  OBJ       0
    x[2,0,0,2]  OBJ       0
    x[2,0,1,0]  OBJ       0
    x[2,0,1,1]  OBJ       0
    x[2,0,1,2]  OBJ       0
    x[2,0,2,0]  OBJ       0
    x[2,0,2,1]  OBJ       0
    x[2,0,2,2]  OBJ       0
    x[2,0,3,0]  c115      10000000
    x[2,0,3,0]  c116      -10000000
    x[2,0,3,1]  c117      10000000
    x[2,0,3,1]  c118      -10000000
    x[2,0,3,2]  OBJ       0
    x[2,1,0,0]  OBJ       0
    x[2,1,0,1]  OBJ       0
    x[2,1,0,2]  OBJ       0
    x[2,1,1,0]  OBJ       0
    x[2,1,1,1]  OBJ       0
    x[2,1,1,2]  OBJ       0
    x[2,1,2,0]  OBJ       0
    x[2,1,2,1]  OBJ       0
    x[2,1,2,2]  OBJ       0
    x[2,1,3,0]  c119      10000000
    x[2,1,3,0]  c120      -10000000
    x[2,1,3,1]  OBJ       0
    x[2,1,3,2]  OBJ       0
    x[2,2,0,0]  OBJ       0
    x[2,2,0,1]  OBJ       0
    x[2,2,0,2]  OBJ       0
    x[2,2,1,0]  OBJ       0
    x[2,2,1,1]  OBJ       0
    x[2,2,1,2]  OBJ       0
    x[2,2,2,0]  OBJ       0
    x[2,2,2,1]  OBJ       0
    x[2,2,2,2]  OBJ       0
    x[2,2,3,0]  OBJ       0
    x[2,2,3,1]  OBJ       0
    x[2,2,3,2]  c121      10000000
    x[2,2,3,2]  c122      -10000000
    x[2,2,3,2]  c123      10000000
    x[2,2,3,2]  c124      -10000000
    x[3,0,0,0]  OBJ       0
    x[3,0,0,1]  OBJ       0
    x[3,0,0,2]  OBJ       0
    x[3,0,1,0]  OBJ       0
    x[3,0,1,1]  OBJ       0
    x[3,0,1,2]  OBJ       0
    x[3,0,2,0]  OBJ       0
    x[3,0,2,1]  OBJ       0
    x[3,0,2,2]  OBJ       0
    x[3,0,3,0]  OBJ       0
    x[3,0,3,1]  OBJ       0
    x[3,0,3,2]  OBJ       0
    x[3,1,0,0]  OBJ       0
    x[3,1,0,1]  OBJ       0
    x[3,1,0,2]  OBJ       0
    x[3,1,1,0]  OBJ       0
    x[3,1,1,1]  OBJ       0
    x[3,1,1,2]  OBJ       0
    x[3,1,2,0]  OBJ       0
    x[3,1,2,1]  OBJ       0
    x[3,1,2,2]  OBJ       0
    x[3,1,3,0]  OBJ       0
    x[3,1,3,1]  OBJ       0
    x[3,1,3,2]  OBJ       0
    x[3,2,0,0]  OBJ       0
    x[3,2,0,1]  OBJ       0
    x[3,2,0,2]  OBJ       0
    x[3,2,1,0]  OBJ       0
    x[3,2,1,1]  OBJ       0
    x[3,2,1,2]  OBJ       0
    x[3,2,2,0]  OBJ       0
    x[3,2,2,1]  OBJ       0
    x[3,2,2,2]  OBJ       0
    x[3,2,3,0]  OBJ       0
    x[3,2,3,1]  OBJ       0
    x[3,2,3,2]  OBJ       0
    s[0,0,3]  c0        1
    s[0,0,3]  c1        1
    s[0,0,3]  c33       1
    s[0,0,3]  c53       1
    s[0,0,3]  c61       -1
    s[0,0,3]  c62       1
    s[0,0,3]  c65       -1
    s[0,0,3]  c66       1
    s[0,0,3]  c69       -1
    s[0,0,3]  c70       1
    s[0,0,3]  c73       1
    s[0,0,3]  c74       -1
    s[0,0,3]  c125      1
    s[0,0,4]  c2        1
    s[0,0,4]  c3        1
    s[0,0,4]  c34       1
    s[0,0,4]  c53       1
    s[0,0,4]  c63       -1
    s[0,0,4]  c64       1
    s[0,0,4]  c67       -1
    s[0,0,4]  c68       1
    s[0,0,4]  c71       -1
    s[0,0,4]  c72       1
    s[0,0,4]  c126      1
    s[0,1,1]  c35       1
    s[0,1,1]  c53       -1
    s[0,1,1]  c54       1
    s[0,1,1]  c75       -1
    s[0,1,1]  c76       1
    s[0,1,1]  c79       -1
    s[0,1,1]  c80       1
    s[0,1,1]  c83       -1
    s[0,1,1]  c84       1
    s[0,1,1]  c127      1
    s[0,1,3]  c36       1
    s[0,1,3]  c53       -1
    s[0,1,3]  c54       1
    s[0,1,3]  c61       1
    s[0,1,3]  c62       -1
    s[0,1,3]  c73       -1
    s[0,1,3]  c74       1
    s[0,1,3]  c77       -1
    s[0,1,3]  c78       1
    s[0,1,3]  c81       -1
    s[0,1,3]  c82       1
    s[0,1,3]  c128      1
    s[0,2,0]  c37       1
    s[0,2,0]  c54       -1
    s[0,2,0]  c85       -1
    s[0,2,0]  c86       1
    s[0,2,0]  c87       -1
    s[0,2,0]  c88       1
    s[0,2,0]  c89       -1
    s[0,2,0]  c90       1
    s[0,2,0]  c129      1
    s[0,2,0]  c130      1
    s[1,0,4]  c4        1
    s[1,0,4]  c5        1
    s[1,0,4]  c38       1
    s[1,0,4]  c55       1
    s[1,0,4]  c63       1
    s[1,0,4]  c64       -1
    s[1,0,4]  c91       -1
    s[1,0,4]  c92       1
    s[1,0,4]  c93       -1
    s[1,0,4]  c94       1
    s[1,0,4]  c131      1
    s[1,1,1]  c39       1
    s[1,1,1]  c55       -1
    s[1,1,1]  c56       1
    s[1,1,1]  c75       1
    s[1,1,1]  c76       -1
    s[1,1,1]  c99       -1
    s[1,1,1]  c100      1
    s[1,1,1]  c103      -1
    s[1,1,1]  c104      1
    s[1,1,1]  c132      1
    s[1,1,2]  c40       1
    s[1,1,2]  c55       -1
    s[1,1,2]  c56       1
    s[1,1,2]  c95       -1
    s[1,1,2]  c96       1
    s[1,1,2]  c97       -1
    s[1,1,2]  c98       1
    s[1,1,2]  c101      -1
    s[1,1,2]  c102      1
    s[1,1,2]  c105      1
    s[1,1,2]  c106      -1
    s[1,1,2]  c133      1
    s[1,2,0]  c41       1
    s[1,2,0]  c56       -1
    s[1,2,0]  c85       1
    s[1,2,0]  c86       -1
    s[1,2,0]  c109      -1
    s[1,2,0]  c110      1
    s[1,2,0]  c113      -1
    s[1,2,0]  c114      1
    s[1,2,0]  c134      1
    s[1,2,0]  c135      1
    s[1,2,2]  c42       1
    s[1,2,2]  c56       -1
    s[1,2,2]  c95       1
    s[1,2,2]  c96       -1
    s[1,2,2]  c105      -1
    s[1,2,2]  c106      1
    s[1,2,2]  c107      -1
    s[1,2,2]  c108      1
    s[1,2,2]  c111      -1
    s[1,2,2]  c112      1
    s[1,2,2]  c136      1
    s[1,2,2]  c137      1
    s[2,0,3]  c6        1
    s[2,0,3]  c7        1
    s[2,0,3]  c43       1
    s[2,0,3]  c57       1
    s[2,0,3]  c65       1
    s[2,0,3]  c66       -1
    s[2,0,3]  c77       1
    s[2,0,3]  c78       -1
    s[2,0,3]  c115      -1
    s[2,0,3]  c116      1
    s[2,0,3]  c138      1
    s[2,0,4]  c8        1
    s[2,0,4]  c9        1
    s[2,0,4]  c44       1
    s[2,0,4]  c57       1
    s[2,0,4]  c67       1
    s[2,0,4]  c68       -1
    s[2,0,4]  c91       1
    s[2,0,4]  c92       -1
    s[2,0,4]  c117      -1
    s[2,0,4]  c118      1
    s[2,0,4]  c139      1
    s[2,1,2]  c45       1
    s[2,1,2]  c57       -1
    s[2,1,2]  c58       1
    s[2,1,2]  c97       1
    s[2,1,2]  c98       -1
    s[2,1,2]  c107      1
    s[2,1,2]  c108      -1
    s[2,1,2]  c119      -1
    s[2,1,2]  c120      1
    s[2,1,2]  c140      1
    s[2,2,0]  c46       1
    s[2,2,0]  c58       -1
    s[2,2,0]  c87       1
    s[2,2,0]  c88       -1
    s[2,2,0]  c109      1
    s[2,2,0]  c110      -1
    s[2,2,0]  c121      -1
    s[2,2,0]  c122      1
    s[2,2,0]  c141      1
    s[2,2,0]  c142      1
    s[2,2,1]  c47       1
    s[2,2,1]  c58       -1
    s[2,2,1]  c79       1
    s[2,2,1]  c80       -1
    s[2,2,1]  c99       1
    s[2,2,1]  c100      -1
    s[2,2,1]  c123      -1
    s[2,2,1]  c124      1
    s[2,2,1]  c143      1
    s[2,2,1]  c144      1
    s[3,0,2]  c10       1
    s[3,0,2]  c11       1
    s[3,0,2]  c48       1
    s[3,0,2]  c59       1
    s[3,0,2]  c101      1
    s[3,0,2]  c102      -1
    s[3,0,2]  c111      1
    s[3,0,2]  c112      -1
    s[3,0,2]  c119      1
    s[3,0,2]  c120      -1
    s[3,0,2]  c145      1
    s[3,0,3]  c12       1
    s[3,0,3]  c13       1
    s[3,0,3]  c49       1
    s[3,0,3]  c59       1
    s[3,0,3]  c69       1
    s[3,0,3]  c70       -1
    s[3,0,3]  c81       1
    s[3,0,3]  c82       -1
    s[3,0,3]  c115      1
    s[3,0,3]  c116      -1
    s[3,0,3]  c146      1
    s[3,1,4]  c50       1
    s[3,1,4]  c59       -1
    s[3,1,4]  c60       1
    s[3,1,4]  c71       1
    s[3,1,4]  c72       -1
    s[3,1,4]  c93       1
    s[3,1,4]  c94       -1
    s[3,1,4]  c117      1
    s[3,1,4]  c118      -1
    s[3,1,4]  c147      1
    s[3,2,0]  c51       1
    s[3,2,0]  c60       -1
    s[3,2,0]  c89       1
    s[3,2,0]  c90       -1
    s[3,2,0]  c113      1
    s[3,2,0]  c114      -1
    s[3,2,0]  c121      1
    s[3,2,0]  c122      -1
    s[3,2,0]  c148      1
    s[3,2,0]  c149      1
    s[3,2,1]  c52       1
    s[3,2,1]  c60       -1
    s[3,2,1]  c83       1
    s[3,2,1]  c84       -1
    s[3,2,1]  c103      1
    s[3,2,1]  c104      -1
    s[3,2,1]  c123      1
    s[3,2,1]  c124      -1
    s[3,2,1]  c150      1
    s[3,2,1]  c151      1
    Z_FO      OBJ       1
    Z_FO      OF_constraint  1
    C185      c0        -10000000
    C185      c1        -10000000
    C185      c14       1
    C185      OF_constraint  330
    C186      c2        -10000000
    C186      c3        -10000000
    C186      c15       1
    C186      OF_constraint  320
    C187      c4        -10000000
    C187      c5        -10000000
    C187      c16       1
    C187      OF_constraint  302
    C188      c6        -10000000
    C188      c7        -10000000
    C188      c17       1
    C188      OF_constraint  290
    C189      c8        -10000000
    C189      c9        -10000000
    C189      c18       1
    C189      OF_constraint  380
    C190      c10       -10000000
    C190      c11       -10000000
    C190      c19       1
    C190      OF_constraint  344
    C191      c12       -10000000
    C191      c13       -10000000
    C191      c20       1
    C191      OF_constraint  335
    MARKER    'MARKER'                 'INTEND'
RHS
    RHS1      c0        -9999520
    RHS1      c1        480
    RHS1      c2        -9999520
    RHS1      c3        480
    RHS1      c4        -9999520
    RHS1      c5        480
    RHS1      c6        -9999520
    RHS1      c7        480
    RHS1      c8        -9999520
    RHS1      c9        480
    RHS1      c10       -9999520
    RHS1      c11       480
    RHS1      c12       -9999520
    RHS1      c13       480
    RHS1      c21       1
    RHS1      c22       1
    RHS1      c23       1
    RHS1      c24       1
    RHS1      c25       1
    RHS1      c26       1
    RHS1      c27       1
    RHS1      c28       1
    RHS1      c29       1
    RHS1      c30       1
    RHS1      c31       1
    RHS1      c32       1
    RHS1      c61       -19999724
    RHS1      c62       -29999714
    RHS1      c63       -19999515
    RHS1      c64       -29999662
    RHS1      c65       -19999250
    RHS1      c66       -29999683
    RHS1      c67       -19999436
    RHS1      c68       -29999116
    RHS1      c69       -19999265
    RHS1      c70       -29999565
    RHS1      c71       -19999567
    RHS1      c72       -29999395
    RHS1      c73       -19999714
    RHS1      c74       -29999724
    RHS1      c75       -19999680
    RHS1      c76       -29999831
    RHS1      c77       -19999678
    RHS1      c78       -29999474
    RHS1      c79       -19999205
    RHS1      c80       -29999575
    RHS1      c81       -19999532
    RHS1      c82       -29999549
    RHS1      c83       -19999578
    RHS1      c84       -29999755
    RHS1      c85       -19999739
    RHS1      c86       -29999345
    RHS1      c87       -19999722
    RHS1      c88       -29999679
    RHS1      c89       -19999574
    RHS1      c90       -29999537
    RHS1      c91       -19999390
    RHS1      c92       -29999504
    RHS1      c93       -19999225
    RHS1      c94       -29999027
    RHS1      c95       -19999776
    RHS1      c96       -29999379
    RHS1      c97       -19999718
    RHS1      c98       -29999649
    RHS1      c99       -19999089
    RHS1      c100      -29999575
    RHS1      c101      -19999826
    RHS1      c102      -29999614
    RHS1      c103      -19999481
    RHS1      c104      -29999520
    RHS1      c105      -19999379
    RHS1      c106      -29999776
    RHS1      c107      -19999394
    RHS1      c108      -29999405
    RHS1      c109      -19999608
    RHS1      c110      -29999710
    RHS1      c111      -19999265
    RHS1      c112      -29998969
    RHS1      c113      -19999183
    RHS1      c114      -29999535
    RHS1      c115      -19999634
    RHS1      c116      -29999555
    RHS1      c117      -19999508
    RHS1      c118      -29999673
    RHS1      c119      -19999452
    RHS1      c120      -29999471
    RHS1      c121      -19999633
    RHS1      c122      -29999168
    RHS1      c123      -19999785
    RHS1      c124      -29999853
BOUNDS
 BV BND1      y[0,0,3]
 BV BND1      y[0,0,4]
 BV BND1      y[0,1,1]
 BV BND1      y[0,1,3]
 BV BND1      y[0,2,0]
 BV BND1      y[1,0,4]
 BV BND1      y[1,1,1]
 BV BND1      y[1,1,2]
 BV BND1      y[1,2,0]
 BV BND1      y[1,2,2]
 BV BND1      y[2,0,3]
 BV BND1      y[2,0,4]
 BV BND1      y[2,1,2]
 BV BND1      y[2,2,0]
 BV BND1      y[2,2,1]
 BV BND1      y[3,0,2]
 BV BND1      y[3,0,3]
 BV BND1      y[3,1,4]
 BV BND1      y[3,2,0]
 BV BND1      y[3,2,1]
 BV BND1      x[0,0,0,0]
 BV BND1      x[0,0,0,1]
 BV BND1      x[0,0,0,2]
 BV BND1      x[0,0,1,0]
 BV BND1      x[0,0,1,1]
 BV BND1      x[0,0,1,2]
 BV BND1      x[0,0,2,0]
 BV BND1      x[0,0,2,1]
 BV BND1      x[0,0,2,2]
 BV BND1      x[0,0,3,0]
 BV BND1      x[0,0,3,1]
 BV BND1      x[0,0,3,2]
 BV BND1      x[0,1,0,0]
 BV BND1      x[0,1,0,1]
 BV BND1      x[0,1,0,2]
 BV BND1      x[0,1,1,0]
 BV BND1      x[0,1,1,1]
 BV BND1      x[0,1,1,2]
 BV BND1      x[0,1,2,0]
 BV BND1      x[0,1,2,1]
 BV BND1      x[0,1,2,2]
 BV BND1      x[0,1,3,0]
 BV BND1      x[0,1,3,1]
 BV BND1      x[0,1,3,2]
 BV BND1      x[0,2,0,0]
 BV BND1      x[0,2,0,1]
 BV BND1      x[0,2,0,2]
 BV BND1      x[0,2,1,0]
 BV BND1      x[0,2,1,1]
 BV BND1      x[0,2,1,2]
 BV BND1      x[0,2,2,0]
 BV BND1      x[0,2,2,1]
 BV BND1      x[0,2,2,2]
 BV BND1      x[0,2,3,0]
 BV BND1      x[0,2,3,1]
 BV BND1      x[0,2,3,2]
 BV BND1      x[1,0,0,0]
 BV BND1      x[1,0,0,1]
 BV BND1      x[1,0,0,2]
 BV BND1      x[1,0,1,0]
 BV BND1      x[1,0,1,1]
 BV BND1      x[1,0,1,2]
 BV BND1      x[1,0,2,0]
 BV BND1      x[1,0,2,1]
 BV BND1      x[1,0,2,2]
 BV BND1      x[1,0,3,0]
 BV BND1      x[1,0,3,1]
 BV BND1      x[1,0,3,2]
 BV BND1      x[1,1,0,0]
 BV BND1      x[1,1,0,1]
 BV BND1      x[1,1,0,2]
 BV BND1      x[1,1,1,0]
 BV BND1      x[1,1,1,1]
 BV BND1      x[1,1,1,2]
 BV BND1      x[1,1,2,0]
 BV BND1      x[1,1,2,1]
 BV BND1      x[1,1,2,2]
 BV BND1      x[1,1,3,0]
 BV BND1      x[1,1,3,1]
 BV BND1      x[1,1,3,2]
 BV BND1      x[1,2,0,0]
 BV BND1      x[1,2,0,1]
 BV BND1      x[1,2,0,2]
 BV BND1      x[1,2,1,0]
 BV BND1      x[1,2,1,1]
 BV BND1      x[1,2,1,2]
 BV BND1      x[1,2,2,0]
 BV BND1      x[1,2,2,1]
 BV BND1      x[1,2,2,2]
 BV BND1      x[1,2,3,0]
 BV BND1      x[1,2,3,1]
 BV BND1      x[1,2,3,2]
 BV BND1      x[2,0,0,0]
 BV BND1      x[2,0,0,1]
 BV BND1      x[2,0,0,2]
 BV BND1      x[2,0,1,0]
 BV BND1      x[2,0,1,1]
 BV BND1      x[2,0,1,2]
 BV BND1      x[2,0,2,0]
 BV BND1      x[2,0,2,1]
 BV BND1      x[2,0,2,2]
 BV BND1      x[2,0,3,0]
 BV BND1      x[2,0,3,1]
 BV BND1      x[2,0,3,2]
 BV BND1      x[2,1,0,0]
 BV BND1      x[2,1,0,1]
 BV BND1      x[2,1,0,2]
 BV BND1      x[2,1,1,0]
 BV BND1      x[2,1,1,1]
 BV BND1      x[2,1,1,2]
 BV BND1      x[2,1,2,0]
 BV BND1      x[2,1,2,1]
 BV BND1      x[2,1,2,2]
 BV BND1      x[2,1,3,0]
 BV BND1      x[2,1,3,1]
 BV BND1      x[2,1,3,2]
 BV BND1      x[2,2,0,0]
 BV BND1      x[2,2,0,1]
 BV BND1      x[2,2,0,2]
 BV BND1      x[2,2,1,0]
 BV BND1      x[2,2,1,1]
 BV BND1      x[2,2,1,2]
 BV BND1      x[2,2,2,0]
 BV BND1      x[2,2,2,1]
 BV BND1      x[2,2,2,2]
 BV BND1      x[2,2,3,0]
 BV BND1      x[2,2,3,1]
 BV BND1      x[2,2,3,2]
 BV BND1      x[3,0,0,0]
 BV BND1      x[3,0,0,1]
 BV BND1      x[3,0,0,2]
 BV BND1      x[3,0,1,0]
 BV BND1      x[3,0,1,1]
 BV BND1      x[3,0,1,2]
 BV BND1      x[3,0,2,0]
 BV BND1      x[3,0,2,1]
 BV BND1      x[3,0,2,2]
 BV BND1      x[3,0,3,0]
 BV BND1      x[3,0,3,1]
 BV BND1      x[3,0,3,2]
 BV BND1      x[3,1,0,0]
 BV BND1      x[3,1,0,1]
 BV BND1      x[3,1,0,2]
 BV BND1      x[3,1,1,0]
 BV BND1      x[3,1,1,1]
 BV BND1      x[3,1,1,2]
 BV BND1      x[3,1,2,0]
 BV BND1      x[3,1,2,1]
 BV BND1      x[3,1,2,2]
 BV BND1      x[3,1,3,0]
 BV BND1      x[3,1,3,1]
 BV BND1      x[3,1,3,2]
 BV BND1      x[3,2,0,0]
 BV BND1      x[3,2,0,1]
 BV BND1      x[3,2,0,2]
 BV BND1      x[3,2,1,0]
 BV BND1      x[3,2,1,1]
 BV BND1      x[3,2,1,2]
 BV BND1      x[3,2,2,0]
 BV BND1      x[3,2,2,1]
 BV BND1      x[3,2,2,2]
 BV BND1      x[3,2,3,0]
 BV BND1      x[3,2,3,1]
 BV BND1      x[3,2,3,2]
 LI BND1      s[0,0,3]  0
 LI BND1      s[0,0,4]  0
 LI BND1      s[0,1,1]  0
 LI BND1      s[0,1,3]  0
 LI BND1      s[0,2,0]  0
 LI BND1      s[1,0,4]  0
 LI BND1      s[1,1,1]  0
 LI BND1      s[1,1,2]  0
 LI BND1      s[1,2,0]  0
 LI BND1      s[1,2,2]  0
 LI BND1      s[2,0,3]  0
 LI BND1      s[2,0,4]  0
 LI BND1      s[2,1,2]  0
 LI BND1      s[2,2,0]  0
 LI BND1      s[2,2,1]  0
 LI BND1      s[3,0,2]  0
 LI BND1      s[3,0,3]  0
 LI BND1      s[3,1,4]  0
 LI BND1      s[3,2,0]  0
 LI BND1      s[3,2,1]  0
 LI BND1      Z_FO      0
 BV BND1      C185    
 BV BND1      C186    
 BV BND1      C187    
 BV BND1      C188    
 BV BND1      C189    
 BV BND1      C190    
 BV BND1      C191    
QCMATRIX   OF_constraint
    s[0,0,3]  C185      -0.5
    C185      s[0,0,3]  -0.5
    s[0,0,4]  C186      -0.5
    C186      s[0,0,4]  -0.5
    s[1,0,4]  C187      -0.5
    C187      s[1,0,4]  -0.5
    s[2,0,3]  C188      -0.5
    C188      s[2,0,3]  -0.5
    s[2,0,4]  C189      -0.5
    C189      s[2,0,4]  -0.5
    s[3,0,2]  C190      -0.5
    C190      s[3,0,2]  -0.5
    s[3,0,3]  C191      -0.5
    C191      s[3,0,3]  -0.5
ENDATA
